200
120 120
1 96 522
2 96 891
3 96 499
4 96 683
5 95 404
6 94 101
7 93 316
8 93 41
9 93 679
10 92 369
11 92 683
12 92 921
13 91 321
14 91 997
15 91 620
16 91 978
17 90 915
18 90 697
19 90 402
20 89 526
21 89 627
22 88 169
23 88 154
24 88 548
25 87 858
26 86 251
27 86 425
28 86 146
29 84 195
30 83 898
31 83 98
32 82 115
33 81 235
34 81 36
35 81 770
36 81 423
37 81 696
38 80 119
39 80 37
40 79 76
41 78 983
42 77 344
43 77 550
44 77 293
45 77 962
46 77 187
47 77 796
48 76 5
49 76 924
50 76 532
51 76 464
52 75 536
53 75 483
54 75 296
55 74 776
56 73 417
57 73 599
58 73 819
59 72 282
60 71 712
61 71 209
62 70 948
63 70 672
64 70 745
65 69 232
66 69 354
67 68 612
68 68 443
69 68 723
70 68 713
71 68 328
72 68 427
73 67 826
74 66 271
75 66 833
76 65 999
77 65 789
78 64 379
79 64 514
80 63 716
81 63 887
82 63 637
83 63 590
84 63 244
85 63 350
86 63 137
87 61 969
88 61 129
89 61 425
90 60 855
91 60 125
92 60 43
93 59 780
94 59 222
95 58 456
96 58 477
97 57 317
98 57 210
99 56 762
100 56 624
101 55 672
102 55 330
103 55 42
104 55 541
105 54 396
106 53 89
107 53 790
108 52 507
109 50 402
110 49 764
111 49 639
112 49 312
113 49 307
114 49 740
115 48 114
116 48 903
117 47 327
118 47 684
119 46 212
120 45 612
121 45 632
122 44 564
123 44 97
124 43 774
125 43 387
126 42 843
127 42 641
128 42 297
129 42 110
130 41 876
131 41 325
132 40 868
133 39 326
134 39 671
135 38 768
136 38 558
137 38 566
138 38 271
139 37 862
140 37 427
141 36 152
142 35 385
143 35 643
144 34 10
145 34 645
146 34 333
147 32 557
148 32 794
149 30 591
150 30 973
151 29 184
152 29 949
153 28 548
154 27 977
155 27 39
156 27 424
157 26 567
158 26 185
159 25 729
160 25 237
161 25 846
162 25 985
163 24 959
164 24 350
165 24 180
166 24 431
167 23 88
168 23 776
169 23 28
170 23 551
171 22 734
172 22 825
173 21 80
174 21 262
175 20 787
176 20 258
177 20 473
178 19 276
179 19 813
180 18 839
181 18 558
182 18 718
183 18 243
184 18 51
185 17 880
186 16 700
187 16 129
188 16 987
189 15 40
190 15 252
191 14 876
192 14 945
193 14 154
194 14 332
195 13 184
196 12 515
197 12 944
198 12 806
199 12 667
200 12 21
